unsat
(forall ((A (_ BitVec 1))
         (B (_ BitVec 1))
         (C (_ BitVec 512))
         (D (_ BitVec 1))
         (E (_ BitVec 1))
         (F (_ BitVec 1))
         (G (_ BitVec 1))
         (H (_ BitVec 1))
         (I (_ BitVec 1))
         (J (_ BitVec 1))
         (K (_ BitVec 279))
         (L (_ BitVec 1))
         (M (_ BitVec 1))
         (N (_ BitVec 1))
         (O (_ BitVec 1))
         (P (_ BitVec 1))
         (Q (_ BitVec 1))
         (R (_ BitVec 1))
         (S (_ BitVec 1))
         (T (_ BitVec 2)))
  (! (let ((a!1 (and (or (not (= D #b1)) (= B #b0))
                     (= G #b1)
                     (or (not ((_ bit2bool 0) A)) (not ((_ bit2bool 283) C)))
                     (or (not ((_ bit2bool 0) A)) (not ((_ bit2bool 284) C)))
                     (or (not ((_ bit2bool 0) E)) (= F #b0)))))
       (= (INV!slice!1 A B C D E F G H I J K L M N O P Q R S T) a!1))
     :weight 0))
